\ This file has been generated by DOcplex
\ ENCODING=ISO-8859-1
\Problem name: JobShopTrain

Minimize
 obj: Cmax
Subject To
 c1: Cmax - x_0_0 >= 30
 c2: Cmax - x_0_2 >= 30
 c3: Cmax - x_0_3 >= 40
 c4: Cmax - x_1_1 >= 40
 c5: Cmax - x_1_2 >= 30
 c6: Cmax - x_1_4 >= 50
 c7: Cmax - x_2_4 >= 50
 c8: Cmax - x_2_2 >= 30
 c9: Cmax - x_2_0 >= 50
 c10: x_0_2 - x_0_0 = 30
 c11: x_0_3 - x_0_2 = 30
 c12: x_1_2 - x_1_1 = 40
 c13: x_1_4 - x_1_2 = 30
 c14: x_2_2 - x_2_4 = 50
 c15: x_2_0 - x_2_2 = 30
 c16: x_0_2 - x_1_2 + 122500 w_0_1_2 <= 122470
 c17: x_1_2 - x_0_2 - 122500 w_0_1_2 <= -30
 c18: x_0_0 - x_2_0 + 122500 w_0_2_0 <= 122470
 c19: x_2_0 - x_0_0 - 122500 w_0_2_0 <= -50
 c20: x_0_2 - x_2_2 + 122500 w_0_2_2 <= 122470
 c21: x_2_2 - x_0_2 - 122500 w_0_2_2 <= -30
 c22: x_1_2 - x_2_2 + 122500 w_1_2_2 <= 122470
 c23: x_2_2 - x_1_2 - 122500 w_1_2_2 <= -30
 c24: x_1_4 - x_2_4 + 122500 w_1_2_4 <= 122450
 c25: x_2_4 - x_1_4 - 122500 w_1_2_4 <= -50

Bounds
       x_0_0 <= 122500
       x_0_2 <= 122500
       x_0_3 <= 122500
       x_1_1 <= 122500
       x_1_2 <= 122500
       x_1_4 <= 122500
       x_2_4 <= 122500
       x_2_2 <= 122500
       x_2_0 <= 122500
 0 <= w_0_2_0 <= 1
 0 <= w_0_1_2 <= 1
 0 <= w_0_2_2 <= 1
 0 <= w_1_2_2 <= 1
 0 <= w_1_2_4 <= 1
       Cmax <= 122500

Binaries
 w_0_2_0 w_0_1_2 w_0_2_2 w_1_2_2 w_1_2_4

Generals
 x_0_0 x_0_2 x_0_3 x_1_1 x_1_2 x_1_4 x_2_4 x_2_2 x_2_0
End
